p cnf 24 108
1 4 7 10 13 16 19 22 0 
2 5 8 11 14 17 20 23 0 
3 6 9 12 15 18 21 24 0 
-1 -2 0 
-1 -3 0 
-2 -3 0 
-4 -5 0 
-4 -6 0 
-5 -6 0 
-7 -8 0 
-7 -9 0 
-8 -9 0 
-10 -11 0 
-10 -12 0 
-11 -12 0 
-13 -14 0 
-13 -15 0 
-14 -15 0 
-16 -17 0 
-16 -18 0 
-17 -18 0 
-19 -20 0 
-19 -21 0 
-20 -21 0 
-22 -23 0 
-22 -24 0 
-23 -24 0 
-1 -7 0 
-1 -8 0 
-1 -9 0 
-2 -7 0 
-2 -8 0 
-2 -9 0 
-3 -7 0 
-3 -8 0 
-3 -9 0 
-1 -16 0 
-1 -17 0 
-1 -18 0 
-2 -16 0 
-2 -17 0 
-2 -18 0 
-3 -16 0 
-3 -17 0 
-3 -18 0 
-1 -22 0 
-1 -23 0 
-1 -24 0 
-2 -22 0 
-2 -23 0 
-2 -24 0 
-3 -22 0 
-3 -23 0 
-3 -24 0 
-4 -22 0 
-4 -23 0 
-4 -24 0 
-5 -22 0 
-5 -23 0 
-5 -24 0 
-6 -22 0 
-6 -23 0 
-6 -24 0 
-7 -13 0 
-7 -14 0 
-7 -15 0 
-8 -13 0 
-8 -14 0 
-8 -15 0 
-9 -13 0 
-9 -14 0 
-9 -15 0 
-10 -16 0 
-10 -17 0 
-10 -18 0 
-11 -16 0 
-11 -17 0 
-11 -18 0 
-12 -16 0 
-12 -17 0 
-12 -18 0 
-10 -19 0 
-10 -20 0 
-10 -21 0 
-11 -19 0 
-11 -20 0 
-11 -21 0 
-12 -19 0 
-12 -20 0 
-12 -21 0 
-16 -22 0 
-16 -23 0 
-16 -24 0 
-17 -22 0 
-17 -23 0 
-17 -24 0 
-18 -22 0 
-18 -23 0 
-18 -24 0 
-19 -22 0 
-19 -23 0 
-19 -24 0 
-20 -22 0 
-20 -23 0 
-20 -24 0 
-21 -22 0 
-21 -23 0 
-21 -24 0 
